/*********************************************
 * OPL 22.1.1.0 Data
 * Author: Quang Chien
 * Creation Date: Mar 8, 2024 at 2:52:30 PM
 *********************************************/
m = 4 ;
n = 4 ;

A = [[ 3 2 2 1 ]
		[ 2 3 2 1 ]
		[ 0 1 4 3 ]
		[ 1 3 2 4 ]
	];

b = [3 4 5 7] ;

c = [2 2 2 1] ;